RAW/CMTX/fspd-long/CMT13X.vrp_seed-8.out
1542.863201	139.431	302.498
