RAW/CMTX/fspd-long/CMT13X.vrp_seed-8.sol
Route #1: 73 71 74 72 75 78 80 79 77 76 68
Route #2: 38 41 47 48 51 50 49 46 44 37
Route #3: 29 36 34 33 30 31 35 32 26 21
Route #4: 55 58 56 60 63 66 64 62 61 65
Route #5: 20 23 28 27 24 22 25 19 16 17
Route #6: 92 89 91 90 18 118 114 109 115 97 94 93 96
Route #7: 108 8 12 13 14 15 11 10 9 7 84 85
Route #8: 119 81 2 1 3 4 5 6 83 113 117 112
Route #9: 39 42 45 43 40 59 57 54 53 52
Route #10: 120 105 106 102 95 87 86 111 82 88
Route #11: 101 99 100 116 110 98 67 70 69 103 104 107
Cost 1542.863201